# Solution for model r3_t36_m6_9
# Finished Task: 26 / 36
# Makespan: 933.0, Total Distance: 1409.0, Total Time: 1.0997
# R O S F
0 0 23 0.0 0.0
1 1 31 0.0 0.0
2 2 36 0.0 0.0
3 -1 -1 -1.0 -1.0
4 -1 -1 -1.0 -1.0
5 -1 -1 -1.0 -1.0
6 -1 -1 -1.0 -1.0
7 1 22 626.0 660.0
8 -1 -1 -1.0 -1.0
9 0 30 535.0 570.0
10 -1 -1 -1.0 -1.0
11 1 7 540.0 563.0
12 2 -1 838.0 862.0
13 0 26 704.0 741.0
14 0 -1 907.0 933.0
15 2 18 588.0 627.0
16 2 38 507.0 540.0
17 -1 -1 -1.0 -1.0
18 2 19 764.0 801.0
19 2 12 801.0 822.0
20 1 -1 887.0 910.0
21 -1 -1 -1.0 -1.0
22 1 33 707.0 746.0
23 0 25 328.0 353.0
24 1 29 353.0 381.0
25 0 9 437.0 459.0
26 0 14 754.0 782.0
27 2 37 320.0 357.0
28 1 11 457.0 487.0
29 1 34 407.0 436.0
30 0 13 648.0 685.0
31 1 24 245.0 278.0
32 -1 -1 -1.0 -1.0
33 1 20 781.0 801.0
34 1 28 436.0 457.0
35 -1 -1 -1.0 -1.0
36 2 27 173.0 204.0
37 2 16 399.0 421.0
38 2 15 540.0 570.0
